21° run output:
{
    "Function": "kroA400.tsp",
    "Problem dimension": [
        196,
        237,
        2,
        48,
        152,
        165,
        377,
        306,
        149,
        333,
        67,
        61,
        223,
        184,
        34,
        110,
        3,
        120,
        62,
        137,
        319,
        207,
        241,
        367,
        30,
        330,
        365,
        338,
        143,
        104,
        216,
        249,
        344,
        17,
        100,
        270,
        157,
        58,
        90,
        70,
        106,
        272,
        312,
        394,
        303,
        268,
        181,
        208,
        349,
        91,
        32,
        332,
        283,
        247,
        172,
        173,
        386,
        190,
        26,
        0,
        119,
        376,
        22,
        155,
        387,
        169,
        31,
        206,
        355,
        204,
        41,
        271,
        248,
        174,
        60,
        342,
        168,
        93,
        194,
        170,
        42,
        334,
        231,
        337,
        395,
        389,
        347,
        56,
        158,
        322,
        85,
        265,
        125,
        73,
        68,
        53,
        236,
        325,
        178,
        187,
        200,
        273,
        185,
        244,
        315,
        262,
        20,
        254,
        21,
        199,
        390,
        370,
        7,
        182,
        323,
        192,
        225,
        63,
        239,
        176,
        66,
        129,
        97,
        277,
        112,
        57,
        16,
        267,
        102,
        324,
        379,
        107,
        399,
        109,
        35,
        72,
        15,
        11,
        380,
        302,
        127,
        263,
        364,
        243,
        83,
        51,
        186,
        233,
        309,
        369,
        284,
        25,
        292,
        14,
        274,
        64,
        29,
        373,
        4,
        175,
        227,
        326,
        343,
        392,
        362,
        46,
        47,
        86,
        13,
        291,
        123,
        146,
        310,
        188,
        382,
        36,
        10,
        383,
        345,
        124,
        141,
        164,
        96,
        245,
        375,
        98,
        297,
        294,
        299,
        359,
        65,
        24,
        211,
        88,
        80,
        50,
        8,
        81,
        130,
        261,
        71,
        346,
        357,
        113,
        161,
        348,
        108,
        217,
        307,
        288,
        94,
        117,
        335,
        212,
        103,
        329,
        92,
        45,
        300,
        269,
        135,
        115,
        391,
        197,
        122,
        308,
        311,
        40,
        101,
        133,
        210,
        350,
        74,
        360,
        39,
        82,
        238,
        253,
        219,
        55,
        177,
        374,
        27,
        354,
        37,
        255,
        5,
        138,
        69,
        218,
        314,
        1,
        250,
        167,
        128,
        89,
        316,
        111,
        279,
        393,
        6,
        320,
        378,
        363,
        368,
        358,
        340,
        371,
        59,
        163,
        328,
        131,
        256,
        341,
        353,
        396,
        251,
        189,
        121,
        183,
        144,
        12,
        296,
        281,
        228,
        257,
        209,
        87,
        142,
        398,
        352,
        160,
        278,
        18,
        179,
        153,
        166,
        305,
        252,
        282,
        285,
        79,
        54,
        331,
        202,
        162,
        289,
        171,
        28,
        148,
        304,
        140,
        260,
        372,
        229,
        351,
        221,
        145,
        276,
        397,
        99,
        215,
        234,
        240,
        293,
        290,
        134,
        19,
        159,
        266,
        222,
        95,
        361,
        205,
        84,
        295,
        230,
        105,
        246,
        259,
        116,
        258,
        286,
        132,
        136,
        318,
        264,
        156,
        385,
        339,
        126,
        78,
        226,
        52,
        23,
        384,
        139,
        151,
        147,
        275,
        287,
        356,
        191,
        220,
        154,
        224,
        301,
        38,
        388,
        213,
        150,
        313,
        317,
        198,
        114,
        242,
        381,
        43,
        193,
        118,
        44,
        203,
        180,
        195,
        336,
        76,
        33,
        298,
        77,
        9,
        280,
        366,
        232,
        201,
        75,
        49,
        214,
        235,
        321,
        327
    ],
    "Global Optimum": 0,
    "Algorithm": "Genetic algorithm",
    "Parameters": {
        "population": 30,
        "offspring": 30,
        "mutation probability": 0.0025,
        "crossover probability": 0.9
    },
    "Fitness": 389634,
    "Solution": [
        196,
        237,
        2,
        48,
        152,
        165,
        377,
        306,
        149,
        333,
        67,
        61,
        223,
        184,
        34,
        110,
        3,
        120,
        62,
        137,
        319,
        207,
        241,
        367,
        30,
        330,
        365,
        338,
        143,
        104,
        216,
        249,
        344,
        17,
        100,
        270,
        157,
        58,
        90,
        70,
        106,
        272,
        312,
        394,
        303,
        268,
        181,
        208,
        349,
        91,
        32,
        332,
        283,
        247,
        172,
        173,
        386,
        190,
        26,
        0,
        119,
        376,
        22,
        155,
        387,
        169,
        31,
        206,
        355,
        204,
        41,
        271,
        248,
        174,
        60,
        342,
        168,
        93,
        194,
        170,
        42,
        334,
        231,
        337,
        395,
        389,
        347,
        56,
        158,
        322,
        85,
        265,
        125,
        73,
        68,
        53,
        236,
        325,
        178,
        187,
        200,
        273,
        185,
        244,
        315,
        262,
        20,
        254,
        21,
        199,
        390,
        370,
        7,
        182,
        323,
        192,
        225,
        63,
        239,
        176,
        66,
        129,
        97,
        277,
        112,
        57,
        16,
        267,
        102,
        324,
        379,
        107,
        399,
        109,
        35,
        72,
        15,
        11,
        380,
        302,
        127,
        263,
        364,
        243,
        83,
        51,
        186,
        233,
        309,
        369,
        284,
        25,
        292,
        14,
        274,
        64,
        29,
        373,
        4,
        175,
        227,
        326,
        343,
        392,
        362,
        46,
        47,
        86,
        13,
        291,
        123,
        146,
        310,
        188,
        382,
        36,
        10,
        383,
        345,
        124,
        141,
        164,
        96,
        245,
        375,
        98,
        297,
        294,
        299,
        359,
        65,
        24,
        211,
        88,
        80,
        50,
        8,
        81,
        130,
        261,
        71,
        346,
        357,
        113,
        161,
        348,
        108,
        217,
        307,
        288,
        94,
        117,
        335,
        212,
        103,
        329,
        92,
        45,
        300,
        269,
        135,
        115,
        391,
        197,
        122,
        308,
        311,
        40,
        101,
        133,
        210,
        350,
        74,
        360,
        39,
        82,
        238,
        253,
        219,
        55,
        177,
        374,
        27,
        354,
        37,
        255,
        5,
        138,
        69,
        218,
        314,
        1,
        250,
        167,
        128,
        89,
        316,
        111,
        279,
        393,
        6,
        320,
        378,
        363,
        368,
        358,
        340,
        371,
        59,
        163,
        328,
        131,
        256,
        341,
        353,
        396,
        251,
        189,
        121,
        183,
        144,
        12,
        296,
        281,
        228,
        257,
        209,
        87,
        142,
        398,
        352,
        160,
        278,
        18,
        179,
        153,
        166,
        305,
        252,
        282,
        285,
        79,
        54,
        331,
        202,
        162,
        289,
        171,
        28,
        148,
        304,
        140,
        260,
        372,
        229,
        351,
        221,
        145,
        276,
        397,
        99,
        215,
        234,
        240,
        293,
        290,
        134,
        19,
        159,
        266,
        222,
        95,
        361,
        205,
        84,
        295,
        230,
        105,
        246,
        259,
        116,
        258,
        286,
        132,
        136,
        318,
        264,
        156,
        385,
        339,
        126,
        78,
        226,
        52,
        23,
        384,
        139,
        151,
        147,
        275,
        287,
        356,
        191,
        220,
        154,
        224,
        301,
        38,
        388,
        213,
        150,
        313,
        317,
        198,
        114,
        242,
        381,
        43,
        193,
        118,
        44,
        203,
        180,
        195,
        336,
        76,
        33,
        298,
        77,
        9,
        280,
        366,
        232,
        201,
        75,
        49,
        214,
        235,
        321,
        327
    ],
    "Nb of functions evaluations": 400020,
    "Computational time in seconds": 1148.4778668880463,
    "Stopping criterion in evaluations": 400000
}